n = 50;
C = 250;
w = [493,181,102,178,353,247,167,159,13,301,286,381,220,325,214,498,304,361,191,402,375,262,82,154,86,99,370,428,257,148,136,433,469,176,171,174,200,86,345,140,385,237,408,96,417,441,162,248,151,7];
p = [185,179,9,24,432,430,393,483,265,193,166,286,459,323,203,331,175,181,357,77,394,430,174,390,463,226,19,278,286,199,55,229,65,411,289,340,383,229,178,345,396,168,93,467,78,26,494,338,216,118];
